data;


param d:= 100;
param r:=5;
param p:=0.860000;
param M:=1000;
param U:=
         1         1       -5.964235e-01
         2         1       -1.290244e-03
         3         1       -3.672487e-01
         4         1        4.039333e-01
         5         1        1.374268e+00
         6         1       -5.364640e-01
         7         1       -1.900853e+00
         8         1       -9.173908e-01
         9         1       -9.126910e-01
        10         1        4.180230e-01
        11         1       -6.145043e-01
        12         1       -6.157092e-01
        13         1        1.841402e-01
        14         1       -1.619564e+00
        15         1        9.647955e-01
        16         1        1.347296e+00
        17         1       -6.935951e-01
        18         1       -8.050798e-01
        19         1        8.206392e-01
        20         1        1.163597e+00
        21         1        1.518286e+00
        22         1       -7.631640e-02
        23         1       -1.513028e+00
        24         1        8.667350e-01
        25         1       -1.707265e+00
        26         1        1.433658e+00
        27         1       -1.667341e+00
        28         1        6.761782e-01
        29         1       -1.357824e+00
        30         1       -1.220036e+00
        31         1        8.650488e-01
        32         1        1.023909e+00
        33         1        9.460658e-01
        34         1       -1.031113e-01
        35         1        2.310800e+00
        36         1        7.831171e-01
        37         1        5.400408e-01
        38         1       -3.762648e-01
        39         1        1.442735e+00
        40         1        7.044216e-01
        41         1        3.084594e-01
        42         1       -1.923503e+00
        43         1        1.297044e+00
        44         1       -1.195068e+00
        45         1       -2.838892e-01
        46         1       -1.823670e+00
        47         1       -1.126615e-01
        48         1        1.437077e+00
        49         1       -3.206434e-01
        50         1        2.340168e+00
        51         1       -9.807686e-01
        52         1       -9.668247e-01
        53         1       -1.299055e+00
        54         1        3.011487e-01
        55         1        8.070448e-01
        56         1        5.189596e-01
        57         1        1.270244e+00
        58         1        2.352124e-01
        59         1       -6.549734e-01
        60         1       -1.006709e+00
        61         1       -2.282454e+00
        62         1        5.395945e-01
        63         1       -1.274723e-01
        64         1        1.813696e+00
        65         1        3.501410e-01
        66         1       -7.479605e-01
        67         1       -6.856831e-01
        68         1        6.649953e-01
        69         1       -1.074603e+00
        70         1       -1.522476e+00
        71         1       -9.504366e-01
        72         1       -9.826865e-01
        73         1        1.596236e+00
        74         1        3.164610e-01
        75         1        1.750771e-01
        76         1       -4.789437e-01
        77         1        7.876388e-01
        78         1       -2.911614e-01
        79         1       -1.548166e+00
        80         1       -5.585304e-01
        81         1       -8.445977e-01
        82         1       -1.992535e+00
        83         1       -1.659878e+00
        84         1        1.008676e+00
        85         1        9.441536e-02
        86         1       -1.226762e+00
        87         1        2.803066e-01
        88         1        1.084749e+00
        89         1        1.857505e+00
        90         1       -1.278644e+00
        91         1        4.560626e-01
        92         1        4.570120e-01
        93         1       -1.921756e+00
        94         1        1.332386e+00
        95         1       -8.261077e-01
        96         1        1.832301e-01
        97         1        6.046970e-01
        98         1       -4.219341e-01
        99         1        7.722455e-01
       100         1       -1.085545e-02
         1         2        9.604954e-01
         2         2       -6.936349e-01
         3         2        2.912739e-01
         4         2       -4.616629e-01
         5         2       -5.053930e-01
         6         2       -1.244757e+00
         7         2        1.786263e+00
         8         2       -1.886634e-01
         9         2        2.993333e-01
        10         2       -4.126783e-01
        11         2        5.384776e-01
        12         2        7.597705e-01
        13         2        1.133080e+00
        14         2       -2.552935e-01
        15         2        8.321152e-01
        16         2        6.473621e-01
        17         2       -1.178357e+00
        18         2       -1.676813e-01
        19         2       -6.948828e-01
        20         2        4.568987e-01
        21         2       -7.445974e-01
        22         2        1.232116e+00
        23         2       -5.352295e-02
        24         2        5.495370e-01
        25         2       -1.404412e+00
        26         2       -1.315853e+00
        27         2       -5.115273e-01
        28         2       -1.214018e+00
        29         2       -8.284479e-01
        30         2        9.185256e-01
        31         2       -5.871422e-01
        32         2       -5.106516e-02
        33         2        1.216653e+00
        34         2        9.526577e-02
        35         2       -6.500363e-02
        36         2        5.207589e-01
        37         2       -3.151996e-01
        38         2        1.856718e-01
        39         2        6.288493e-01
        40         2       -9.025334e-01
        41         2       -3.328928e-01
        42         2        7.465514e-01
        43         2       -4.434917e-01
        44         2       -1.605600e+00
        45         2       -1.254873e-01
        46         2        1.344216e+00
        47         2        5.633943e-01
        48         2        4.205893e-01
        49         2       -3.870457e-01
        50         2       -1.830316e+00
        51         2        8.105198e-01
        52         2       -1.106505e+00
        53         2        6.582384e-01
        54         2        7.522767e-01
        55         2       -7.163203e-01
        56         2        3.673248e-02
        57         2        1.320941e-02
        58         2        9.097749e-01
        59         2        4.714891e-02
        60         2       -9.944097e-01
        61         2        1.423995e-01
        62         2       -1.978908e+00
        63         2       -2.308873e-01
        64         2        1.020283e-01
        65         2        1.070986e+00
        66         2        1.540923e-01
        67         2        1.234862e-01
        68         2       -1.051634e+00
        69         2        2.664329e-01
        70         2       -3.485391e-01
        71         2       -4.085032e-01
        72         2        7.641422e-02
        73         2        1.808193e-01
        74         2        4.298372e-01
        75         2        2.269777e+00
        76         2       -2.043412e-01
        77         2       -1.390960e+00
        78         2       -3.049542e-01
        79         2        3.837739e-01
        80         2       -2.351567e-01
        81         2       -5.207920e-01
        82         2       -8.509482e-02
        83         2       -2.004879e+00
        84         2        1.021829e-01
        85         2       -3.349386e-02
        86         2       -7.973505e-02
        87         2       -7.784941e-01
        88         2        8.901288e-02
        89         2       -1.004338e+00
        90         2       -1.610097e+00
        91         2        9.955278e-02
        92         2        1.142077e-01
        93         2        3.506466e-01
        94         2       -2.473772e-01
        95         2       -2.401818e-01
        96         2        5.734308e-01
        97         2        8.371193e-01
        98         2        2.989430e-01
        99         2        8.159590e-01
       100         2        1.258381e+00
         1         3        9.681047e-01
         2         3       -7.951121e-01
         3         3        1.169331e+00
         4         3       -1.975239e-01
         5         3        6.672091e-01
         6         3        4.901241e-01
         7         3        8.681938e-01
         8         3        8.621692e-01
         9         3       -1.404946e-01
        10         3        1.100621e+00
        11         3        1.208325e+00
        12         3        4.483614e-01
        13         3       -5.134814e-01
        14         3       -5.769219e-01
        15         3       -3.557625e-01
        16         3        4.276500e-01
        17         3       -3.996245e-02
        18         3       -1.200792e+00
        19         3       -3.890329e-01
        20         3        1.202542e+00
        21         3        2.493214e-01
        22         3       -4.451165e-01
        23         3       -8.689309e-01
        24         3       -9.094955e-01
        25         3        1.734577e+00
        26         3        6.779003e-01
        27         3        9.453428e-01
        28         3       -1.473528e+00
        29         3       -1.838338e+00
        30         3        4.342494e-01
        31         3       -4.506500e-01
        32         3       -1.385281e-01
        33         3        3.718235e-01
        34         3        2.234891e-02
        35         3        3.820680e-01
        36         3       -1.953361e+00
        37         3       -1.779520e+00
        38         3        2.356967e-01
        39         3       -1.609689e-01
        40         3       -6.052211e-01
        41         3        4.521596e-01
        42         3       -3.430647e-01
        43         3        1.061162e+00
        44         3        7.649511e-01
        45         3       -1.036903e+00
        46         3       -3.643775e-01
        47         3        3.270033e-01
        48         3       -1.685237e+00
        49         3        4.776727e-02
        50         3        4.489252e-01
        51         3       -2.174179e-01
        52         3       -1.153307e+00
        53         3        3.717725e-01
        54         3        5.223949e-01
        55         3       -1.374632e+00
        56         3        3.367204e-01
        57         3        7.689022e-01
        58         3        9.055996e-01
        59         3        1.153543e+00
        60         3        6.238123e-01
        61         3       -1.263813e+00
        62         3       -4.346883e-01
        63         3       -3.836772e-01
        64         3       -2.260316e-02
        65         3        2.791489e-01
        66         3       -7.508641e-01
        67         3        6.740067e-01
        68         3        7.856248e-01
        69         3        2.147767e-01
        70         3       -2.404824e-01
        71         3        5.951082e-01
        72         3        5.461219e-01
        73         3        9.825440e-03
        74         3       -2.082733e+00
        75         3        1.330298e+00
        76         3       -3.406084e-01
        77         3        1.573757e+00
        78         3       -1.747845e-01
        79         3       -1.287254e+00
        80         3        6.209221e-01
        81         3       -8.107483e-01
        82         3        2.008474e+00
        83         3        9.875844e-01
        84         3       -6.887902e-01
        85         3        1.666017e+00
        86         3        1.381633e+00
        87         3       -6.073228e-01
        88         3        1.741230e+00
        89         3       -3.563218e-01
        90         3       -1.642877e+00
        91         3       -7.798611e-01
        92         3       -9.877039e-02
        93         3        1.157920e+00
        94         3       -9.251608e-01
        95         3       -2.270115e+00
        96         3        1.195382e+00
        97         3        7.381046e-02
        98         3        9.199023e-01
        99         3        1.782680e+00
       100         3       -9.995123e-01
         1         4       -3.553562e-01
         2         4       -3.941489e-01
         3         4       -1.009786e+00
         4         4        5.591543e-01
         5         4       -2.916522e-01
         6         4       -2.863069e-01
         7         4        1.131262e+00
         8         4       -4.190140e-01
         9         4        1.490490e-01
        10         4        1.176227e+00
        11         4       -7.023815e-01
        12         4        2.439176e-02
        13         4        3.306777e-01
        14         4        7.236659e-01
        15         4       -5.065662e-01
        16         4       -1.932105e+00
        17         4        6.911626e-02
        18         4       -4.350492e-01
        19         4       -3.504356e-01
        20         4        4.062500e-01
        21         4       -1.063288e+00
        22         4        4.550104e-01
        23         4       -7.283851e-01
        24         4        1.175825e+00
        25         4        5.914511e-01
        26         4        1.392154e-01
        27         4       -1.645067e-01
        28         4        5.221307e-01
        29         4       -5.581853e-01
        30         4       -1.180797e+00
        31         4        4.891104e-01
        32         4        1.688856e+00
        33         4        1.658145e+00
        34         4       -3.694897e-02
        35         4        7.135559e-01
        36         4       -5.651562e-01
        37         4        5.021716e-01
        38         4       -1.126103e+00
        39         4       -6.349535e-01
        40         4        2.561578e-01
        41         4        4.457170e-01
        42         4       -3.375322e-01
        43         4        8.879232e-01
        44         4        3.649843e-01
        45         4       -4.402590e-01
        46         4       -7.471037e-02
        47         4        2.326358e-01
        48         4        1.092758e+00
        49         4       -2.136388e+00
        50         4        4.222759e-01
        51         4        4.997528e-01
        52         4        2.275766e-01
        53         4       -1.853751e+00
        54         4        1.068208e+00
        55         4       -2.908322e-01
        56         4       -5.002476e-01
        57         4       -3.070793e-02
        58         4       -9.205344e-01
        59         4        2.464563e-02
        60         4       -1.050518e+00
        61         4       -4.094007e-01
        62         4        8.883396e-01
        63         4        3.288311e-01
        64         4        3.106435e-02
        65         4        1.393598e+00
        66         4       -5.749178e-01
        67         4        8.580051e-01
        68         4       -2.071500e+00
        69         4       -1.235625e+00
        70         4       -9.619717e-01
        71         4        5.957222e-01
        72         4       -1.665842e+00
        73         4        2.557117e-01
        74         4       -1.729809e+00
        75         4        2.931012e-01
        76         4       -9.837415e-01
        77         4       -1.442715e+00
        78         4        2.377312e-01
        79         4        1.644936e+00
        80         4       -1.699130e-02
        81         4        1.361359e+00
        82         4       -8.959015e-02
        83         4       -3.929703e-01
        84         4       -8.432531e-01
        85         4        1.338714e+00
        86         4       -3.841820e-02
        87         4       -2.757490e-02
        88         4        3.373306e-01
        89         4       -8.401462e-01
        90         4       -2.492616e-01
        91         4       -4.600005e-01
        92         4       -5.215864e-01
        93         4        1.932949e+00
        94         4        3.065947e-01
        95         4       -7.909268e-02
        96         4       -8.202445e-01
        97         4        1.196139e+00
        98         4        1.050929e+00
        99         4        5.908456e-01
       100         4       -2.124162e-01
         1         5        1.290930e+00
         2         5       -1.280309e+00
         3         5       -2.339000e+00
         4         5        7.095690e-01
         5         5       -1.981942e-01
         6         5       -5.774161e-01
         7         5        4.813725e-01
         8         5       -9.913419e-01
         9         5       -2.064317e+00
        10         5       -9.342142e-01
        11         5       -9.910372e-01
        12         5       -1.082885e-01
        13         5        8.677575e-01
        14         5       -1.085173e+00
        15         5       -1.180124e+00
        16         5       -2.010235e-01
        17         5        1.668129e-01
        18         5        2.700395e-01
        19         5        1.225781e-01
        20         5       -1.404187e+00
        21         5        8.721693e-02
        22         5        1.834806e+00
        23         5        1.138550e+00
        24         5        3.060623e-01
        25         5       -5.803398e-01
        26         5        5.701830e-01
        27         5        1.804567e+00
        28         5       -1.927559e-01
        29         5        2.414788e-01
        30         5        5.777646e-01
        31         5        3.136134e-01
        32         5        7.643896e-01
        33         5        7.381433e-01
        34         5        9.619735e-01
        35         5        1.628302e+00
        36         5        1.107076e+00
        37         5       -1.631376e-01
        38         5       -6.695670e-01
        39         5       -4.760162e-02
        40         5       -1.337767e+00
        41         5        1.207960e-01
        42         5       -1.770567e-01
        43         5        4.303168e-01
        44         5        1.993470e+00
        45         5        5.477417e-01
        46         5       -4.408663e-02
        47         5        1.303806e-01
        48         5        2.128088e-01
        49         5        5.412677e-01
        50         5       -2.559862e-01
        51         5        5.237095e-02
        52         5        1.296935e-01
        53         5       -9.224847e-01
        54         5        7.125268e-01
        55         5        1.061270e-02
        56         5        4.104220e-02
        57         5        1.101153e+00
        58         5        9.996477e-01
        59         5        2.251384e+00
        60         5       -1.440001e+00
        61         5       -1.747216e+00
        62         5        1.475337e+00
        63         5        7.803653e-01
        64         5        2.062431e+00
        65         5        6.154759e-01
        66         5        2.041836e-03
        67         5        3.594749e-01
        68         5        1.373877e+00
        69         5       -2.878209e-01
        70         5       -1.669232e+00
        71         5       -1.272415e+00
        72         5        2.565266e-01
        73         5        4.949621e-01
        74         5       -1.711668e-01
        75         5       -8.625731e-01
        76         5       -9.924466e-01
        77         5        5.508807e-01
        78         5       -1.598418e+00
        79         5        7.295005e-01
        80         5       -6.508157e-01
        81         5       -5.812635e-01
        82         5       -2.031499e+00
        83         5        4.416187e-01
        84         5        6.269031e-01
        85         5        7.302503e-01
        86         5        7.568468e-01
        87         5        9.863354e-01
        88         5       -8.673550e-01
        89         5       -1.035229e+00
        90         5       -3.314079e-01
        91         5       -1.163510e+00
        92         5       -3.720078e-01
        93         5        3.113421e-01
        94         5        7.448244e-02
        95         5       -9.619547e-01
        96         5       -1.132260e+00
        97         5        1.256472e+00
        98         5        2.400958e-01
        99         5       -1.051472e-01
       100         5       -6.736362e-01
;

param theta:=
    1        4.320604e-01
    2        5.534704e-01
    3       -1.786087e-01
    4        2.461850e+00
    5       -5.135519e-01
;
param X_true:=
    1       -1.435864e+00
    2       -5.551695e-01
    3       -1.490049e+00
    4        9.663287e-01
    5       -4.210231e-01
    6       -1.415960e+00
    7        2.550760e+00
    8       -1.177403e+00
    9        1.222958e+00
   10        3.130332e+00
   11       -1.403402e+00
   12        1.895811e-01
   13        1.166708e+00
   14        1.601474e+00
   15        3.002399e-01
   16       -3.789512e+00
   17       -8.603994e-01
   18       -1.434259e+00
   19       -8.844873e-01
   20        2.264485e+00
   21       -2.461521e+00
   22        9.063672e-01
   23       -2.906233e+00
   24        3.579600e+00
   25       -7.031882e-02
   26       -1.805047e-01
   27       -2.503845e+00
   28        1.267317e+00
   29       -2.215468e+00
   30       -3.299844e+00
   31        1.172012e+00
   32        4.204975e+00
   33        4.718148e+00
   34       -5.815005e-01
   35        1.815226e+00
   36       -9.841855e-01
   37        1.696654e+00
   38       -2.530715e+00
   39       -5.382038e-01
   40        1.230904e+00
   41        9.036030e-01
   42       -1.098031e+00
   43        2.090355e+00
   44       -1.666812e+00
   45       -1.371784e+00
   46       -1.410901e-01
   47        7.114978e-01
   48        3.734764e+00
   49       -5.899588e+00
   50        1.088068e+00
   51        1.268393e+00
   52       -3.304264e-01
   53       -4.353147e+00
   54        2.716243e+00
   55       -5.238208e-01
   56       -1.068457e+00
   57       -2.232563e-01
   58       -2.335013e+00
   59       -1.558755e+00
   60       -2.941877e+00
   61       -7.920671e-01
   62        6.423459e-01
   63        2.943160e-01
   64       -1.372473e-01
   65        3.809701e+00
   66       -1.520104e+00
   67        1.579259e+00
   68       -6.240585e+00
   69       -3.247131e+00
   70       -2.318007e+00
   71        1.378693e+00
   72       -4.714429e+00
   73        1.163489e+00
   74       -3.423219e+00
   75        2.259148e+00
   76       -2.172227e+00
   77       -4.545635e+00
   78        1.143980e+00
   79        3.448135e+00
   80       -1.900180e-01
   81        3.140835e+00
   82       -4.436992e-01
   83       -3.194899e+00
   84       -1.783757e+00
   85        2.646145e+00
   86       -1.302806e+00
   87       -7.735718e-01
   88        1.481034e+00
   89       -1.225751e+00
   90       -1.593861e+00
   91       -1.430927e-01
   92       -8.147334e-01
   93        3.755880e+00
   94        1.320733e+00
   95        2.148515e-01
   96       -1.255930e+00
   97        3.008702e+00
   98        2.282381e+00
   99        1.976799e+00
  100        6.936174e-01
;
param X:=
    1       -1.435864e+00
    2       -7.027014e-01
    3       -2.544622e-01
    4       -8.964620e-02
    5       -8.983926e-01
    6        1.003982e-01
    7        2.216468e+00
    8        7.768824e-01
    9        2.915906e-01
   10        3.130332e+00
   11        1.938117e-01
   12        1.615954e+00
   13       -5.587967e-01
   14       -6.398203e-01
   15       -2.276089e-01
   16        8.841720e-01
   17       -1.003430e+00
   18       -6.331879e-01
   19       -9.401638e-02
   20       -9.173196e-01
   21       -9.978034e-01
   22       -2.399249e-01
   23       -2.906233e+00
   24        2.050564e+00
   25       -5.984090e-02
   26       -9.940957e-01
   27       -5.194089e-02
   28       -2.724999e-01
   29       -6.729926e-01
   30       -6.538057e-01
   31       -4.043908e-01
   32        9.982351e-01
   33        1.732447e-01
   34       -5.236106e-01
   35        7.364889e-02
   36       -4.407968e-01
   37        2.810916e-01
   38       -2.530715e+00
   39        6.415779e-01
   40        5.240456e-01
   41       -8.834913e-01
   42        1.508820e+00
   43        1.817143e+00
   44        5.706515e-02
   45       -7.285851e-01
   46       -1.228588e+00
   47       -6.617250e-02
   48        3.533683e-01
   49       -5.899588e+00
   50       -9.681671e-01
   51        8.357255e-01
   52       -3.304264e-01
   53        2.247876e+00
   54        2.716243e+00
   55       -1.353851e+00
   56        2.396847e-01
   57       -2.232563e-01
   58        6.025113e-01
   59        9.450320e-01
   60       -1.038147e+00
   61       -7.935486e-01
   62       -6.934911e-01
   63        1.379026e+00
   64       -3.284192e-01
   65       -1.555538e-01
   66        5.477327e-01
   67        1.025987e+00
   68        3.705017e-01
   69       -6.436983e-02
   70       -2.318007e+00
   71       -1.647144e+00
   72        8.190652e-01
   73        1.163489e+00
   74       -1.860221e+00
   75        2.259148e+00
   76       -9.896793e-01
   77       -4.545635e+00
   78        1.143980e+00
   79        1.691907e+00
   80        3.700099e-01
   81        7.547198e-01
   82       -4.379525e-01
   83        1.207532e+00
   84       -1.133715e+00
   85        2.646145e+00
   86       -3.270341e-01
   87        1.017363e+00
   88        1.218196e-02
   89       -1.969689e-01
   90        1.029905e+00
   91        4.397480e-01
   92       -1.706625e+00
   93       -2.850975e-01
   94       -8.009898e-01
   95       -5.171691e-01
   96        1.383611e+00
   97        3.994906e-01
   98       -6.503820e-01
   99        6.931951e-01
  100       -1.045849e+00
;
param outliervec:=
    1    0
    2    1
    3    1
    4    1
    5    1
    6    1
    7    1
    8    1
    9    1
   10    0
   11    1
   12    1
   13    1
   14    1
   15    1
   16    1
   17    1
   18    1
   19    1
   20    1
   21    1
   22    1
   23    0
   24    1
   25    1
   26    1
   27    1
   28    1
   29    1
   30    1
   31    1
   32    1
   33    1
   34    1
   35    1
   36    1
   37    1
   38    0
   39    1
   40    1
   41    1
   42    1
   43    1
   44    1
   45    1
   46    1
   47    1
   48    1
   49    0
   50    1
   51    1
   52    0
   53    1
   54    0
   55    1
   56    1
   57    0
   58    1
   59    1
   60    1
   61    1
   62    1
   63    1
   64    1
   65    1
   66    1
   67    1
   68    1
   69    1
   70    0
   71    1
   72    1
   73    0
   74    1
   75    0
   76    1
   77    0
   78    0
   79    1
   80    1
   81    1
   82    1
   83    1
   84    1
   85    0
   86    1
   87    1
   88    1
   89    1
   90    1
   91    1
   92    1
   93    1
   94    1
   95    1
   96    1
   97    1
   98    1
   99    1
  100    1
;